0 1 0 0 1 1 1 1 
0 18 44 40 21 38 12 46 
18 0 27 43 39 24 6 31 
44 27 0 31 47 21 25 13 
40 43 31 0 29 46 36 15 
21 39 47 29 0 45 37 15 
38 24 21 46 45 0 46 22 
12 6 25 36 37 46 0 19 
46 31 13 15 15 22 19 0 
2 29
1B 5P 4B 8P 3B 6P 2P 7P = 141